 39 16 84 51 19 57 33  1 23 39 27 37 37  1 82 24 28 98 74 36
  9 19 71  7 23  7 65 56 37 87 43  4 92 75 86 26 17  7 80 24
 72 13 49 37 89 37 58  4 13 48  4 43 18  9 81 66 82 21 60 26
 93 77 20  1 60 36 85 18 97 24 60 28 94 34 61 10  4 83 91 38
  8 83 29 87 77 15 26 97 44 85 22 17 47 30 10 84 13 26 16 48
 75 70 16 72 85 94 49 40 64 98 46 18 47  2 77 74 77 32 65 91
 16 98 85 63 10 14 82 39 23 29 30 99 34 16 34 28 69 85 50 58
 98 49 46 66 63 88 41 13 43 54 69 97 10 51 95 51 92 71 98 33
 65 93 14 73 97 17 91 71 59 45 45 21 98 64 50 74 77 32 70 95
 21 98 61 78  6 34 53 63  3 50 29 29 20 68 84 29 75 85 98 68